(set-logic ALL)
(declare-const nth_VAR Int)
(assert (not (<= nth_VAR 0)))
(assert (> nth_VAR 0))
(assert (> nth_VAR 1))
(assert (> nth_VAR 2))
(assert (> nth_VAR 2))
(assert (> nth_VAR 3))
(assert (> nth_VAR 3))
(assert (> nth_VAR 4))
(assert (> nth_VAR 4))
(assert (> nth_VAR 4))
(assert (> nth_VAR 4))
(assert (> nth_VAR 5))
(assert (> nth_VAR 5))
(assert (> nth_VAR 6))
(assert (> nth_VAR 6))
(assert (> nth_VAR 6))
(assert (> nth_VAR 6))
(assert (> nth_VAR 7))
(assert (> nth_VAR 7))
(assert (> nth_VAR 8))
(assert (> nth_VAR 8))
(assert (> nth_VAR 8))
(assert (> nth_VAR 8))
(assert (> nth_VAR 9))
(assert (> nth_VAR 9))
(assert (> nth_VAR 9))
(assert (> nth_VAR 9))
(assert (> nth_VAR 9))
(assert (> nth_VAR 9))
(assert (> nth_VAR 10))
(assert (> nth_VAR 10))
(assert (> nth_VAR 11))
(assert (> nth_VAR 11))
(assert (> nth_VAR 11))
(assert (> nth_VAR 11))
(assert (> nth_VAR 11))
(assert (> nth_VAR 11))
(assert (> nth_VAR 12))
(assert (> nth_VAR 12))
(assert (> nth_VAR 12))
(assert (> nth_VAR 12))
(assert (> nth_VAR 13))
(assert (> nth_VAR 13))
(assert (> nth_VAR 14))
(assert (> nth_VAR 14))
(assert (> nth_VAR 14))
(assert (> nth_VAR 14))
(assert (> nth_VAR 15))
(assert (> nth_VAR 15))
(assert (> nth_VAR 15))
(assert (> nth_VAR 15))
(assert (> nth_VAR 15))
(assert (> nth_VAR 15))
(assert (> nth_VAR 16))
(assert (> nth_VAR 16))
(assert (> nth_VAR 16))
(assert (> nth_VAR 16))
(assert (> nth_VAR 16))
(assert (> nth_VAR 16))
(assert (> nth_VAR 17))
(assert (> nth_VAR 17))
(assert (> nth_VAR 18))
(assert (> nth_VAR 18))
(assert (> nth_VAR 18))
(assert (> nth_VAR 18))
(assert (> nth_VAR 18))
(assert (> nth_VAR 18))
(assert (> nth_VAR 19))
(assert (> nth_VAR 19))
(assert (> nth_VAR 19))
(assert (> nth_VAR 19))
(assert (> nth_VAR 20))
(assert (> nth_VAR 20))
(assert (> nth_VAR 21))
(assert (not (> nth_VAR 21)))
(check-sat)
(get-value (nth_VAR))
